c width = 2, time = 0.000089
s td 34 3 36
b 1 5 12 23
b 2 5 23 29
b 3 12 5 6
b 4 12 6 7
b 5 12 7 8
b 6 12 8 9
b 7 12 9 10
b 8 12 10 11
b 9 23 12 14
b 10 23 14 15
b 11 23 15 16
b 12 23 16 17
b 13 23 17 18
b 14 23 18 19
b 15 23 19 20
b 16 23 20 21
b 17 23 21 22
b 18 29 5 4
b 19 29 4 3
b 20 29 3 36
b 21 29 36 35
b 22 29 35 34
b 23 29 34 33
b 24 29 33 32
b 25 29 32 31
b 26 29 31 24
b 27 29 24 13
b 28 29 23 25
b 29 29 25 26
b 30 29 26 27
b 31 29 27 28
b 32 13 2
b 33 2 1
b 34 29 30
1 2
1 3
3 4
4 5
5 6
6 7
7 8
1 9
9 10
10 11
11 12
12 13
13 14
14 15
15 16
16 17
2 18
18 19
19 20
20 21
21 22
22 23
23 24
24 25
25 26
26 27
2 28
28 29
29 30
30 31
27 32
32 33
2 34
